
  32    1
  10

   0   0  12 2 3 4 5 7 8 9 10 11 13 14 31 
   7   4  10 30 29 28 27 26 25 24 19 18 17 
   3   8   7 30 29 28 24 18 15 12 
   3   3   3 28 16 6 
  10   5   8 29 28 27 26 24 21 18 17 
  10  10   8 30 27 26 25 24 23 18 17 
   4   5   8 30 29 28 27 26 24 23 22 
   8   8   5 25 24 20 18 17 
   4   5   5 28 27 25 24 19 
   5   7   4 28 24 19 17 
   8   8   4 25 24 23 17 
   7   5   3 26 25 17 
   8  10   3 29 26 17 
   7   6   3 26 23 17 
   8   7   2 23 22 
   6   4   1 17 
   3   4   1 22 
   4   5   1 22 
  10   5   1 23 
   6   3   1 27 
   6  10   1 25 
   5   6   1 32
   3   3   1 32
   4   2   1 32
   5   8   1 32
   3  10   1 32
   5   5   1 32
   6   7   1 32
   1   8   1 32
   6   5   1 32
   8   4   1 32
   0   0   0 
